p cnf 700 1016
-96 -114 61 191 0
-96 -114 61 -191 0
69 -33 128 192 0
69 -33 128 -192 0
136 45 134 193 0
136 45 134 -193 0
-79 -25 -7 194 0
-79 -25 -7 -194 0
167 19 -30 195 0
167 19 -30 -195 0
7 -25 79 196 0
7 -25 79 -196 0
-31 -26 90 197 0
-31 -26 90 -197 0
-124 -177 -55 198 0
-124 -177 -55 -198 0
89 -143 186 199 0
89 -143 186 -199 0
-142 -147 166 200 0
-142 -147 166 -200 0
-79 -52 -14 201 0
-79 -52 -14 -201 0
-11 -150 -66 202 0
-11 -150 -66 -202 0
-103 -148 -144 203 0
-103 -148 -144 -203 0
110 9 141 204 0
110 9 141 -204 0
4 125 65 205 0
4 125 65 -205 0
26 31 90 206 0
26 31 90 -206 0
-173 32 50 207 0
-173 32 50 -207 0
55 122 -190 208 0
55 122 -190 -208 0
106 100 28 209 0
106 100 28 -209 0
-135 -151 157 210 0
-135 -151 157 -210 0
8 111 -23 211 0
8 111 -23 -211 0
182 -18 1 212 0
182 -18 1 -212 0
-14 -162 -110 213 0
-14 -162 -110 -213 0
2 -42 115 214 0
2 -42 115 -214 0
-44 -151 19 215 0
-44 -151 19 -215 0
-177 17 -38 216 0
-177 17 -38 -216 0
185 -75 24 217 0
185 -75 24 -217 0
-29 48 -86 218 0
-29 48 -86 -218 0
20 -15 -57 219 0
20 -15 -57 -219 0
15 -10 52 220 0
15 -10 52 -220 0
43 -169 97 221 0
43 -169 97 -221 0
107 -33 125 222 0
107 -33 125 -222 0
129 180 147 223 0
129 180 147 -223 0
-91 37 -88 224 0
-91 37 -88 -224 0
-60 25 -70 225 0
-60 25 -70 -225 0
45 60 -122 226 0
45 60 -122 -226 0
-41 -171 76 227 0
-41 -171 76 -227 0
-180 161 -58 228 0
-180 161 -58 -228 0
41 -171 -76 229 0
41 -171 -76 -229 0
122 45 -60 230 0
122 45 -60 -230 0
36 107 -173 231 0
36 107 -173 -231 0
-69 33 128 232 0
-69 33 128 -232 0
-140 -129 99 233 0
-140 -129 99 -233 0
29 -66 93 234 0
29 -66 93 -234 0
-164 27 -77 235 0
-164 27 -77 -235 0
-77 -163 16 236 0
-77 -163 16 -236 0
96 -95 -116 237 0
96 -95 -116 -237 0
180 -161 -58 238 0
180 -161 -58 -238 0
-115 -42 -2 239 0
-115 -42 -2 -239 0
52 -15 10 240 0
52 -15 10 -240 0
73 108 -181 241 0
73 108 -181 -241 0
-67 -21 -68 242 0
-67 -21 -68 -242 0
-20 -15 57 243 0
-20 -15 57 -243 0
160 -98 61 244 0
160 -98 61 -244 0
124 -177 55 245 0
124 -177 55 -245 0
2 42 -115 246 0
2 42 -115 -246 0
72 -105 -53 247 0
72 -105 -53 -247 0
-93 -29 -66 248 0
-93 -29 -66 -248 0
-74 153 -50 249 0
-74 153 -50 -249 0
-156 157 174 250 0
-156 157 174 -250 0
-168 -162 111 251 0
-168 -162 111 -251 0
-95 116 -96 252 0
-95 116 -96 -252 0
124 104 10 253 0
124 104 10 -253 0
48 109 73 254 0
48 109 73 -254 0
91 170 -120 255 0
91 170 -120 -255 0
52 -79 14 256 0
52 -79 14 -256 0
-10 -52 -15 257 0
-10 -52 -15 -257 0
-38 -4 80 258 0
-38 -4 80 -258 0
-167 46 94 259 0
-167 46 94 -259 0
84 49 -51 260 0
84 49 -51 -260 0
123 93 152 261 0
123 93 152 -261 0
59 -187 -181 262 0
59 -187 -181 -262 0
32 -132 -127 263 0
32 -132 -127 -263 0
-150 11 66 264 0
-150 11 66 -264 0
78 149 134 265 0
78 149 134 -265 0
162 -14 110 266 0
162 -14 110 -266 0
-120 -95 -166 267 0
-120 -95 -166 -267 0
12 -179 159 268 0
12 -179 159 -268 0
190 -55 122 269 0
190 -55 122 -269 0
-112 104 139 270 0
-112 104 139 -270 0
38 -80 -4 271 0
38 -80 -4 -271 0
160 -42 -23 272 0
160 -42 -23 -272 0
-31 -90 26 273 0
-31 -90 26 -273 0
-24 -75 -185 274 0
-24 -75 -185 -274 0
179 -12 159 275 0
179 -12 159 -275 0
84 -49 51 276 0
84 -49 51 -276 0
81 146 168 277 0
81 146 168 -277 0
148 103 -144 278 0
148 103 -144 -278 0
-4 125 -65 279 0
-4 125 -65 -279 0
175 -148 58 280 0
175 -148 58 -280 0
184 -158 176 281 0
184 -158 176 -281 0
-81 137 144 282 0
-81 137 144 -282 0
117 85 56 283 0
117 85 56 -283 0
-16 -126 80 284 0
-16 -126 80 -284 0
-141 -110 9 285 0
-141 -110 9 -285 0
35 -37 -89 286 0
35 -37 -89 -286 0
47 5 -172 287 0
47 5 -172 -287 0
75 47 22 288 0
75 47 22 -288 0
-12 51 -127 289 0
-12 51 -127 -289 0
102 123 118 290 0
102 123 118 -290 0
55 -124 177 291 0
55 -124 177 -291 0
-86 -48 29 292 0
-86 -48 29 -292 0
132 32 127 293 0
132 32 127 -293 0
114 96 61 294 0
114 96 61 -294 0
-136 -84 295 296 0
-136 -84 295 -296 0
-136 -84 -295 297 0
-136 -84 -295 -297 0
-188 2 -171 298 0
-188 2 -171 -298 0
162 -110 14 299 0
162 -110 14 -299 0
-139 189 -174 300 0
-139 189 -174 -300 0
179 12 -159 301 0
179 12 -159 -301 0
-140 -34 -115 302 0
-140 -34 -115 -302 0
38 -17 -177 303 0
38 -17 -177 -303 0
-53 105 -72 304 0
-53 105 -72 -304 0
177 -38 -17 305 0
177 -38 -17 -305 0
-77 164 -27 306 0
-77 164 -27 -306 0
-143 -89 -186 307 0
-143 -89 -186 -307 0
56 -30 13 308 0
56 -30 13 -308 0
170 11 -101 309 0
170 11 -101 -309 0
-92 -21 -63 310 0
-92 -21 -63 -310 0
-74 -146 -159 311 0
-74 -146 -159 -311 0
184 90 -65 312 0
184 90 -65 -312 0
74 -50 -153 313 0
74 -50 -153 -313 0
113 97 190 314 0
113 97 190 -314 0
-58 -148 -175 315 0
-58 -148 -175 -315 0
-164 -178 -102 316 0
-164 -178 -102 -316 0
170 -11 101 317 0
170 -11 101 -317 0
144 103 -148 318 0
144 103 -148 -318 0
-114 -1 -5 319 0
-114 -1 -5 -319 0
-168 -146 81 320 0
-168 -146 81 -320 0
-7 79 25 321 0
-7 79 25 -321 0
-145 -78 -82 322 0
-145 -78 -82 -322 0
-83 -87 -176 323 0
-83 -87 -176 -323 0
-126 187 -158 324 0
-126 187 -158 -324 0
-72 -105 53 325 0
-72 -105 53 -325 0
-19 44 -151 326 0
-19 44 -151 -326 0
-130 -149 119 327 0
-130 -149 119 -327 0
175 183 -131 328 0
175 183 -131 -328 0
-27 -132 57 329 0
-27 -132 57 -329 0
-29 66 93 330 0
-29 66 93 -330 0
185 145 6 331 0
185 145 6 -331 0
163 -16 -77 332 0
163 -16 -77 -332 0
179 103 -6 333 0
179 103 -6 -333 0
-91 88 -37 334 0
-91 88 -37 -334 0
187 181 59 335 0
187 181 59 -335 0
182 -130 99 336 0
182 -130 99 -336 0
-120 166 95 337 0
-120 166 95 -337 0
106 -28 -100 338 0
106 -28 -100 -338 0
-174 139 -189 339 0
-174 139 -189 -339 0
-178 188 64 340 0
-178 188 64 -340 0
-68 -54 3 341 0
-68 -54 3 -341 0
-24 155 -72 342 0
-24 155 -72 -342 0
115 34 -140 343 0
115 34 -140 -343 0
27 164 77 344 0
27 164 77 -344 0
117 94 -133 345 0
117 94 -133 -345 0
189 143 -135 346 0
189 143 -135 -346 0
-164 77 -27 347 0
-164 77 -27 -347 0
-155 -72 24 348 0
-155 -72 24 -348 0
178 -164 102 349 0
178 -164 102 -349 0
29 48 86 350 0
29 48 86 -350 0
-57 15 -20 351 0
-57 15 -20 -351 0
82 78 -145 352 0
82 78 -145 -352 0
85 -117 -56 353 0
85 -117 -56 -353 0
83 109 -62 354 0
83 109 -62 -354 0
-147 -180 129 355 0
-147 -180 129 -355 0
156 64 -169 356 0
156 64 -169 -356 0
98 -34 121 357 0
98 -34 121 -357 0
100 -153 183 358 0
100 -153 183 -358 0
161 180 58 359 0
161 180 58 -359 0
-39 49 -172 360 0
-39 49 -172 -360 0
-9 141 -110 361 0
-9 141 -110 -361 0
-121 98 34 362 0
-121 98 34 -362 0
-166 -147 142 363 0
-166 -147 142 -363 0
-165 -163 28 364 0
-165 -163 28 -364 0
-157 135 -151 365 0
-157 135 -151 -365 0
-108 -73 -181 366 0
-108 -73 -181 -366 0
-73 108 181 367 0
-73 108 181 -367 0
56 30 -13 368 0
56 30 -13 -368 0
35 54 -36 369 0
35 54 -36 -369 0
-30 -19 -167 370 0
-30 -19 -167 -370 0
115 -2 42 371 0
115 -2 42 -371 0
-130 -99 -182 372 0
-130 -99 -182 -372 0
7 -13 -62 373 0
7 -13 -62 -373 0
13 -7 -62 374 0
13 -7 -62 -374 0
121 34 -98 375 0
121 34 -98 -375 0
52 -14 79 376 0
52 -14 79 -376 0
99 130 -182 377 0
99 130 -182 -377 0
-28 163 -165 378 0
-28 163 -165 -378 0
-35 -37 89 379 0
-35 -37 89 -379 0
-104 -112 -139 380 0
-104 -112 -139 -380 0
46 -94 167 381 0
46 -94 167 -381 0
-128 85 -40 382 0
-128 85 -40 -382 0
-102 -118 123 383 0
-102 -118 123 -383 0
35 37 89 384 0
35 37 89 -384 0
-23 42 -160 385 0
-23 42 -160 -385 0
186 143 -89 386 0
186 143 -89 -386 0
162 168 111 387 0
162 168 111 -387 0
147 166 142 388 0
147 166 142 -388 0
6 103 -179 389 0
6 103 -179 -389 0
-121 92 39 390 0
-121 92 39 -390 0
138 137 59 391 0
138 137 59 -391 0
113 -141 -118 392 0
113 -141 -118 -392 0
-180 147 -129 393 0
-180 147 -129 -393 0
-28 -163 165 394 0
-28 -163 165 -394 0
36 -107 173 395 0
36 -107 173 -395 0
-4 -125 65 396 0
-4 -125 65 -396 0
-168 -111 162 397 0
-168 -111 162 -397 0
-137 81 144 398 0
-137 81 144 -398 0
-71 18 155 399 0
-71 18 155 -399 0
-66 11 150 400 0
-66 11 150 -400 0
138 70 -154 401 0
138 70 -154 -401 0
114 1 -5 402 0
114 1 -5 -402 0
-93 -123 152 403 0
-93 -123 152 -403 0
74 146 -159 404 0
74 146 -159 -404 0
-51 -49 -84 405 0
-51 -49 -84 -405 0
-122 190 55 406 0
-122 190 55 -406 0
-188 -64 -178 407 0
-188 -64 -178 -407 0
146 -81 -168 408 0
146 -81 -168 -408 0
-9 -141 110 409 0
-9 -141 110 -409 0
29 66 -93 410 0
29 66 -93 -410 0
72 155 24 411 0
72 155 24 -411 0
-172 -49 39 412 0
-172 -49 39 -412 0
-36 -35 -54 413 0
-36 -35 -54 -413 0
-167 30 19 414 0
-167 30 19 -414 0
186 41 46 415 0
186 41 46 -415 0
127 -132 -32 416 0
127 -132 -32 -416 0
-10 124 -104 417 0
-10 124 -104 -417 0
-133 -94 -117 418 0
-133 -94 -117 -418 0
23 -111 8 419 0
23 -111 8 -419 0
24 -185 75 420 0
24 -185 75 -420 0
-99 182 130 421 0
-99 182 130 -421 0
151 44 19 422 0
151 44 19 -422 0
-46 -167 -94 423 0
-46 -167 -94 -423 0
-101 -67 116 424 0
-101 -67 116 -424 0
57 20 15 425 0
57 20 15 -425 0
174 139 189 426 0
174 139 189 -426 0
101 -170 11 427 0
101 -170 11 -427 0
-63 92 21 428 0
-63 92 21 -428 0
41 -46 -186 429 0
41 -46 -186 -429 0
-119 22 -9 430 0
-119 22 -9 -430 0
-157 174 156 431 0
-157 174 156 -431 0
167 -19 30 432 0
167 -19 30 -432 0
-34 115 140 433 0
-34 115 140 -433 0
-71 -155 -18 434 0
-71 -155 -18 -434 0
168 -81 -146 435 0
168 -81 -146 -435 0
-53 -43 -26 436 0
-53 -43 -26 -436 0
134 -136 -45 437 0
134 -136 -45 -437 0
-93 123 -152 438 0
-93 123 -152 -438 0
16 77 163 439 0
16 77 163 -439 0
136 84 440 441 0
136 84 440 -441 0
136 84 -440 442 0
136 84 -440 -442 0
113 141 118 443 0
113 141 118 -443 0
-40 86 142 444 0
-40 86 142 -444 0
-144 137 81 445 0
-144 137 81 -445 0
-112 -31 -161 446 0
-112 -31 -161 -446 0
87 83 -176 447 0
87 83 -176 -447 0
42 160 23 448 0
42 160 23 -448 0
34 140 -115 449 0
34 140 -115 -449 0
-147 -129 180 450 0
-147 -129 180 -450 0
-130 149 -119 451 0
-130 149 -119 -451 0
-48 -29 86 452 0
-48 -29 86 -452 0
-9 -22 119 453 0
-9 -22 119 -453 0
185 -145 -6 454 0
185 -145 -6 -454 0
-131 20 -71 455 0
-131 20 -71 -455 0
-6 -179 -103 456 0
-6 -179 -103 -456 0
-137 -138 59 457 0
-137 -138 59 -457 0
-64 156 169 458 0
-64 156 169 -458 0
154 70 -138 459 0
154 70 -138 -459 0
-186 89 143 460 0
-186 89 143 -460 0
94 167 -46 461 0
94 167 -46 -461 0
-74 50 -153 462 0
-74 50 -153 -462 0
41 171 76 463 0
41 171 76 -463 0
174 -139 -189 464 0
174 -139 -189 -464 0
-169 -156 -64 465 0
-169 -156 -64 -465 0
23 -8 111 466 0
23 -8 111 -466 0
107 -125 33 467 0
107 -125 33 -467 0
164 -178 102 468 0
164 -178 102 -468 0
-157 -156 -174 469 0
-157 -156 -174 -469 0
-43 26 53 470 0
-43 26 53 -470 0
-101 -11 -170 471 0
-101 -11 -170 -471 0
-82 8 87 472 0
-82 8 87 -472 0
-31 112 161 473 0
-31 112 161 -473 0
87 -83 176 474 0
87 -83 176 -474 0
-88 -106 -154 475 0
-88 -106 -154 -475 0
-70 154 138 476 0
-70 154 138 -476 0
139 -104 112 477 0
139 -104 112 -477 0
95 120 -166 478 0
95 120 -166 -478 0
-59 137 -138 479 0
-59 137 -138 -479 0
65 -184 90 480 0
65 -184 90 -480 0
114 -61 -96 481 0
114 -61 -96 -481 0
21 68 -67 482 0
21 68 -67 -482 0
173 -36 107 483 0
173 -36 107 -483 0
83 176 -87 484 0
83 176 -87 -484 0
-85 128 -40 485 0
-85 128 -40 -485 0
136 -45 -134 486 0
136 -45 -134 -486 0
-166 -142 147 487 0
-166 -142 147 -487 0
30 13 -56 488 0
30 13 -56 -488 0
40 -86 142 489 0
40 -86 142 -489 0
-65 -125 4 490 0
-65 -125 4 -490 0
172 5 -47 491 0
172 5 -47 -491 0
-47 -5 -172 492 0
-47 -5 -172 -492 0
-144 -81 -137 493 0
-144 -81 -137 -493 0
188 -2 -171 494 0
188 -2 -171 -494 0
5 -1 114 495 0
5 -1 114 -495 0
-142 -86 -40 496 0
-142 -86 -40 -496 0
165 163 28 497 0
165 163 28 -497 0
134 -78 -149 498 0
134 -78 -149 -498 0
-60 -45 -122 499 0
-60 -45 -122 -499 0
-68 54 -3 500 0
-68 54 -3 -500 0
-119 130 -149 501 0
-119 130 -149 -501 0
-16 126 -80 502 0
-16 126 -80 -502 0
-142 40 86 503 0
-142 40 86 -503 0
106 154 -88 504 0
106 154 -88 -504 0
92 -39 121 505 0
92 -39 121 -505 0
58 148 -175 506 0
58 148 -175 -506 0
178 188 -64 507 0
178 188 -64 -507 0
158 -184 176 508 0
158 -184 176 -508 0
-68 67 21 509 0
-68 67 21 -509 0
-20 -71 131 510 0
-20 -71 131 -510 0
177 17 38 511 0
177 17 38 -511 0
-22 -75 47 512 0
-22 -75 47 -512 0
-88 91 -37 513 0
-88 91 -37 -513 0
166 -95 120 514 0
166 -95 120 -514 0
-108 181 73 515 0
-108 181 73 -515 0
-136 45 -134 516 0
-136 45 -134 -516 0
-185 -145 6 517 0
-185 -145 6 -517 0
-80 16 -126 518 0
-80 16 -126 -518 0
138 -137 -59 519 0
138 -137 -59 -519 0
-21 68 67 520 0
-21 68 67 -520 0
-105 -133 -152 521 0
-105 -133 -152 -521 0
135 143 -189 522 0
135 143 -189 -522 0
-61 -160 -98 523 0
-61 -160 -98 -523 0
-124 104 -10 524 0
-124 104 -10 -524 0
171 -2 -188 525 0
171 -2 -188 -525 0
-3 150 -108 526 0
-3 150 -108 -526 0
152 133 -105 527 0
152 133 -105 -527 0
85 128 40 528 0
85 128 40 -528 0
9 -119 -22 529 0
9 -119 -22 -529 0
129 99 140 530 0
129 99 140 -530 0
-134 -78 149 531 0
-134 -78 149 -531 0
-8 82 87 532 0
-8 82 87 -532 0
-44 63 -17 533 0
-44 63 -17 -533 0
126 80 16 534 0
126 80 16 -534 0
27 -57 -132 535 0
27 -57 -132 -535 0
48 -73 -109 536 0
48 -73 -109 -536 0
-103 144 148 537 0
-103 144 148 -537 0
-91 170 120 538 0
-91 170 120 -538 0
-160 98 61 539 0
-160 98 61 -539 0
105 152 -133 540 0
105 152 -133 -540 0
-6 145 -185 541 0
-6 145 -185 -541 0
-50 -32 -173 542 0
-50 -32 -173 -542 0
31 -26 -90 543 0
31 -26 -90 -543 0
51 -84 49 544 0
51 -84 49 -544 0
-53 43 26 545 0
-53 43 26 -545 0
-118 102 -123 546 0
-118 102 -123 -546 0
-174 156 157 547 0
-174 156 157 -547 0
159 74 -146 548 0
159 74 -146 -548 0
-159 -179 -12 549 0
-159 -179 -12 -549 0
-54 -3 68 550 0
-54 -3 68 -550 0
82 145 -78 551 0
82 145 -78 -551 0
-128 69 33 552 0
-128 69 33 -552 0
175 -58 148 553 0
175 -58 148 -553 0
4 -80 -38 554 0
4 -80 -38 -554 0
119 130 149 555 0
119 130 149 -555 0
-87 82 8 556 0
-87 82 8 -556 0
-158 -176 -184 557 0
-158 -176 -184 -557 0
33 -107 125 558 0
33 -107 125 -558 0
118 -113 -141 559 0
118 -113 -141 -559 0
-149 78 -134 560 0
-149 78 -134 -560 0
-82 145 78 561 0
-82 145 78 -561 0
-24 72 -155 562 0
-24 72 -155 -562 0
-135 -143 -189 563 0
-135 -143 -189 -563 0
181 -59 -187 564 0
181 -59 -187 -564 0
62 83 -109 565 0
62 83 -109 -565 0
105 -152 133 566 0
105 -152 133 -566 0
-190 -55 -122 567 0
-190 -55 -122 -567 0
3 54 68 568 0
3 54 68 -568 0
-186 46 -41 569 0
-186 46 -41 -569 0
-62 -83 -109 570 0
-62 -83 -109 -570 0
-101 -116 67 571 0
-101 -116 67 -571 0
-27 132 -57 572 0
-27 132 -57 -572 0
76 69 -165 573 0
76 69 -165 -573 0
43 -26 53 574 0
43 -26 53 -574 0
173 32 -50 575 0
173 32 -50 -575 0
62 -83 109 576 0
62 -83 109 -576 0
-92 -121 -39 577 0
-92 -121 -39 -577 0
169 -156 64 578 0
169 -156 64 -578 0
150 -11 66 579 0
150 -11 66 -579 0
-28 -106 100 580 0
-28 -106 100 -580 0
10 -124 -104 581 0
10 -124 -104 -581 0
-158 126 -187 582 0
-158 126 -187 -582 0
-160 -42 23 583 0
-160 -42 23 -583 0
18 1 -182 584 0
18 1 -182 -584 0
93 -123 -152 585 0
93 -123 -152 -585 0
-87 -8 -82 586 0
-87 -8 -82 -586 0
-106 -100 28 587 0
-106 -100 28 -587 0
116 95 96 588 0
116 95 96 -588 0
-90 65 184 589 0
-90 65 184 -589 0
104 112 -139 590 0
104 112 -139 -590 0
62 13 7 591 0
62 13 7 -591 0
160 98 -61 592 0
160 98 -61 -592 0
10 -52 15 593 0
10 -52 15 -593 0
-183 153 100 594 0
-183 153 100 -594 0
-184 -65 -90 595 0
-184 -65 -90 -595 0
127 -12 -51 596 0
127 -12 -51 -596 0
50 173 -32 597 0
50 173 -32 -597 0
185 -24 75 598 0
185 -24 75 -598 0
-70 60 -25 599 0
-70 60 -25 -599 0
70 -60 -25 600 0
70 -60 -25 -600 0
151 -19 -44 601 0
151 -19 -44 -601 0
-13 -56 -30 602 0
-13 -56 -30 -602 0
-52 79 14 603 0
-52 79 14 -603 0
-45 122 60 604 0
-45 122 60 -604 0
-1 182 18 605 0
-1 182 18 -605 0
183 153 -100 606 0
183 153 -100 -606 0
44 17 63 607 0
44 17 63 -607 0
88 106 -154 608 0
88 106 -154 -608 0
-108 3 -150 609 0
-108 3 -150 -609 0
-102 118 -123 610 0
-102 118 -123 -610 0
7 -79 25 611 0
7 -79 25 -611 0
-13 -7 62 612 0
-13 -7 62 -612 0
-180 58 -161 613 0
-180 58 -161 -613 0
-34 -98 -121 614 0
-34 -98 -121 -614 0
175 -183 131 615 0
175 -183 131 -615 0
108 150 3 616 0
108 150 3 -616 0
-3 -150 108 617 0
-3 -150 108 -617 0
12 -51 -127 618 0
12 -51 -127 -618 0
-36 -173 -107 619 0
-36 -173 -107 -619 0
131 183 -175 620 0
131 183 -175 -620 0
-113 97 -190 621 0
-113 97 -190 -621 0
171 -41 -76 622 0
171 -41 -76 -622 0
-155 71 18 623 0
-155 71 18 -623 0
2 171 188 624 0
2 171 188 -624 0
38 4 80 625 0
38 4 80 -625 0
-143 135 189 626 0
-143 135 189 -626 0
154 88 -106 627 0
154 88 -106 -627 0
-99 140 -129 628 0
-99 140 -129 -628 0
39 49 172 629 0
39 49 172 -629 0
126 187 158 630 0
126 187 158 -630 0
-135 -157 151 631 0
-135 -157 151 -631 0
-102 178 164 632 0
-102 178 164 -632 0
-41 186 -46 633 0
-41 186 -46 -633 0
37 -89 -35 634 0
37 -89 -35 -634 0
-23 -8 -111 635 0
-23 -8 -111 -635 0
129 -99 -140 636 0
129 -99 -140 -636 0
-76 -165 -69 637 0
-76 -165 -69 -637 0
133 -117 94 638 0
133 -117 94 -638 0
36 -35 54 639 0
36 -35 54 -639 0
14 110 -162 640 0
14 110 -162 -640 0
-18 -1 -182 641 0
-18 -1 -182 -641 0
20 131 71 642 0
20 131 71 -642 0
63 -21 92 643 0
63 -21 92 -643 0
-127 -32 132 644 0
-127 -32 132 -644 0
141 -118 -113 645 0
141 -118 -113 -645 0
-69 -128 -33 646 0
-69 -128 -33 -646 0
44 -17 -63 647 0
44 -17 -63 -647 0
168 -111 -162 648 0
168 -111 -162 -648 0
-48 -73 109 649 0
-48 -73 109 -649 0
-47 22 -75 650 0
-47 22 -75 -650 0
1 5 -114 651 0
1 5 -114 -651 0
-107 -125 -33 652 0
-107 -125 -33 -652 0
71 -18 155 653 0
71 -18 155 -653 0
-76 165 69 654 0
-76 165 69 -654 0
21 -92 63 655 0
21 -92 63 -655 0
-85 -56 117 656 0
-85 -56 117 -656 0
-116 -96 95 657 0
-116 -96 95 -657 0
161 31 -112 658 0
161 31 -112 -658 0
39 121 -92 659 0
39 121 -92 -659 0
-55 124 177 660 0
-55 124 177 -660 0
158 -187 -126 661 0
158 -187 -126 -661 0
17 -44 -63 662 0
17 -44 -63 -662 0
71 -131 -20 663 0
71 -131 -20 -663 0
-128 -85 40 664 0
-128 -85 40 -664 0
-190 -97 113 665 0
-190 -97 113 -665 0
37 88 91 666 0
37 88 91 -666 0
-16 77 -163 667 0
-16 77 -163 -667 0
165 76 -69 668 0
165 76 -69 -668 0
-170 -91 -120 669 0
-170 -91 -120 -669 0
-97 -169 -43 670 0
-97 -169 -43 -670 0
172 -5 47 671 0
172 -5 47 -671 0
-49 172 -39 672 0
-49 172 -39 -672 0
-47 -22 75 673 0
-47 -22 75 -673 0
91 -170 120 674 0
91 -170 120 -674 0
151 157 135 675 0
151 157 135 -675 0
-100 -183 -153 676 0
-100 -183 -153 -676 0
169 -43 97 677 0
169 -43 97 -677 0
57 132 27 678 0
57 132 27 -678 0
112 -161 31 679 0
112 -161 31 -679 0
-70 -154 -138 680 0
-70 -154 -138 -680 0
-113 -97 190 681 0
-113 -97 190 -681 0
60 25 70 682 0
60 25 70 -682 0
22 9 119 683 0
22 9 119 -683 0
187 -181 -59 684 0
187 -181 -59 -684 0
-85 56 -117 685 0
-85 56 -117 -685 0
-54 35 36 686 0
-54 35 36 -686 0
-97 43 169 687 0
-97 43 169 -687 0
-94 133 117 688 0
-94 133 117 -688 0
12 127 51 689 0
12 127 51 -689 0
-175 -131 -183 690 0
-175 -131 -183 -690 0
-67 -116 101 691 0
-67 -116 101 -691 0
73 -48 -109 692 0
73 -48 -109 -692 0
74 50 153 693 0
74 50 153 -693 0
159 146 -74 694 0
159 146 -74 -694 0
184 158 -176 695 0
184 158 -176 -695 0
-188 178 64 696 0
-188 178 64 -696 0
-114 -61 96 697 0
-114 -61 96 -697 0
105 72 53 698 0
105 72 53 -698 0
101 67 116 699 0
101 67 116 -699 0
6 -103 179 700 0
6 -103 179 -700 0

